5743.0
0 0 0 1 0 0 0 0 0 1 0 0 0 0 1 0 1 0 0 1 



0 2 7 10 17 25 26 29 41 42 53 54 60 61 62 63 64 65 





3 21 22 44 55 57 59 




1 13 18 19 20 23 33 34 45 58 

6 8 9 16 24 27 28 30 38 39 40 43 50 51 52 56 66 


4 5 11 12 14 15 31 32 35 36 37 46 47 48 49 67 68 69 70 71 72 73 74 75 76 77 78 79 
